NAME : amz1106.92866_88366.tour
COMMENT : Cost = 92866_88366
COMMENT : Found by LKH-AMZ [Keld Helsgaun] Sun May 11 14:46:12 2025
COMMENT : TW viol.: 0 #: 0
TYPE : TOUR
DIMENSION : 111
TOUR_SECTION
31
88
54
101
33
6
22
47
77
76
12
99
37
60
46
91
20
59
67
40
17
41
64
35
44
57
53
4
14
25
71
11
102
63
69
15
103
43
21
87
30
84
2
97
75
34
8
66
39
104
28
16
36
89
27
1
100
58
111
68
73
110
90
109
52
86
85
65
48
95
5
62
3
51
7
106
9
82
78
56
10
61
74
29
83
49
70
92
55
98
108
24
50
96
18
72
23
93
38
94
79
32
19
107
42
26
81
45
105
80
13
-1
EOF
